# Objective value = 3.0664681378424973e+02
x[0] 1
x[1] 0
x[2] 0
x[3] 0
x[4] 1
x[5] 1
x[6] 0
x[7] 0
x[8] 0
x[9] 0
x[10] 0
x[11] 0
x[12] 1
x[13] 0
x[14] 0
x[15] 1
x[16] 1
x[17] 1
x[18] 0
x[19] 1
x[20] 1
x[21] 1
x[22] 1
x[23] 0
x[24] 0
x[25] 0
x[26] 0
x[27] 0
x[28] 1
x[29] 1
x[30] 1
x[31] 0
x[32] 0
x[33] 0
x[34] 0
x[35] 1
x[36] 1
x[37] 0
x[38] 0
x[39] 0
x[40] 1
x[41] 1
x[42] 1
x[43] 1
x[44] 1
x[45] 1
x[46] 1
x[47] 0
x[48] 0
x[49] 1
x[50] 0
x[51] 1
x[52] 1
x[53] 0
x[54] 0
x[55] 1
x[56] 0
x[57] 0
x[58] 1
x[59] 1
x[60] 0
x[61] 1
x[62] 1
x[63] 0
x[64] 0
x[65] 1
x[66] 0
x[67] 1
x[68] 1
x[69] 1
x[70] 0
x[71] 1
x[72] 1
x[73] 1
x[74] 1
x[75] 1
x[76] 1
x[77] 0
x[78] 0
x[79] 1
x[80] 1
x[81] 0
x[82] 0
x[83] 1
x[84] 1
x[85] 1
x[86] 0
x[87] 1
x[88] 0
x[89] 0
x[90] 0
x[91] 1
x[92] 0
x[93] 0
x[94] 0
x[95] 0
x[96] 1
x[97] 1
x[98] 1
x[99] 1
x[100] 1
x[101] 0
x[102] 1
x[103] 0
x[104] 0
x[105] 0
x[106] 1
x[107] 0
x[108] 0
x[109] 0
x[110] 0
x[111] 0
x[112] 0
x[113] 1
x[114] 1
x[115] 0
x[116] 0
x[117] 1
x[118] 0
x[119] 0
x[120] 0
x[121] 1
x[122] 1
x[123] 1
x[124] 0
x[125] 0
x[126] 1
x[127] 0
x[128] 1
x[129] 1
x[130] 0
x[131] 1
x[132] 1
x[133] 1
x[134] 0
x[135] 0
x[136] 1
x[137] 0
x[138] 0
x[139] 1
x[140] 0
x[141] 1
x[142] 0
x[143] 1
x[144] 1
x[145] 1
x[146] 0
x[147] 0
x[148] 1
x[149] 0
x[150] 0
x[151] 0
x[152] 1
x[153] 0
x[154] 1
x[155] 1
x[156] 1
x[157] 0
x[158] 0
x[159] 1
x[160] 1
x[161] 0
x[162] 0
x[163] 1
x[164] 0
x[165] 0
x[166] 1
x[167] 1
x[168] 1
x[169] 1
x[170] 0
x[171] 0
x[172] 1
x[173] 0
x[174] 0
x[175] 1
x[176] 0
x[177] 1
x[178] 0
x[179] 1
x[180] 0
x[181] 1
x[182] 0
x[183] 0
x[184] 0
x[185] 0
x[186] 1
x[187] 0
x[188] 0
x[189] 0
x[190] 0
x[191] 1
x[192] 0
x[193] 1
x[194] 1
x[195] 1
x[196] 1
x[197] 1
x[198] 1
x[199] 0
x[200] 0
x[201] 1
x[202] 1
x[203] 0
x[204] 1
x[205] 0
x[206] 0
x[207] 1
x[208] 1
x[209] 0
x[210] 1
x[211] 1
x[212] 0
x[213] 1
x[214] 0
x[215] 1
x[216] 0
x[217] 1
x[218] 1
x[219] 0
x[220] 1
x[221] 0
x[222] 0
x[223] 1
x[224] 0
x[225] 1
x[226] 0
x[227] 0
x[228] 1
x[229] 1
x[230] 1
x[231] 0
x[232] 1
x[233] 1
x[234] 1
x[235] 1
x[236] 1
x[237] 1
x[238] 1
x[239] 1
x[240] 1
x[241] 0
x[242] 0
x[243] 1
x[244] 0
x[245] 1
x[246] 1
x[247] 0
x[248] 0
x[249] 1
x[250] 1
x[251] 1
x[252] 1
x[253] 0
x[254] 1
x[255] 0
x[256] 0
x[257] 1
x[258] 0
x[259] 1
x[260] 1
x[261] 0
x[262] 1
x[263] 1
x[264] 0
x[265] 0
x[266] 1
x[267] 0
x[268] 1
x[269] 0
x[270] 0
x[271] 1
x[272] 0
x[273] 0
x[274] 1
x[275] 1
x[276] 0
x[277] 1
x[278] 1
x[279] 0
x[280] 1
x[281] 0
x[282] 0
x[283] 1
x[284] 1
x[285] 1
x[286] 0
x[287] 0
x[288] 0
x[289] 0
x[290] 1
x[291] 0
x[292] 0
x[293] 1
x[294] 0
x[295] 1
x[296] 0
x[297] 1
x[298] 0
x[299] 1
x[300] 1
x[301] 1
x[302] 1
x[303] 1
x[304] 0
x[305] 1
x[306] 0
x[307] 0
x[308] 0
x[309] 1
x[310] 0
x[311] 1
x[312] 1
x[313] 0
x[314] 0
x[315] 0
x[316] 0
x[317] 1
x[318] 1
x[319] 1
x[320] 1
x[321] 1
x[322] 0
x[323] 0
x[324] 1
x[325] 0
x[326] 0
x[327] 0
x[328] 1
x[329] 1
x[330] 0
x[331] 1
x[332] 0
x[333] 0
x[334] 1
x[335] 0
x[336] 1
x[337] 1
x[338] 1
x[339] 0
x[340] 0
x[341] 1
x[342] 0
x[343] 0
x[344] 0
x[345] 1
x[346] 0
x[347] 1
x[348] 0
x[349] 0
x[350] 1
x[351] 0
x[352] 0
x[353] 0
x[354] 1
x[355] 1
x[356] 1
x[357] 0
x[358] 1
x[359] 0
x[360] 1
x[361] 1
x[362] 1
x[363] 0
x[364] 0
x[365] 0
x[366] 1
x[367] 0
x[368] 0
x[369] 0
x[370] 1
x[371] 0
x[372] 0
x[373] 1
x[374] 0
x[375] 0
x[376] 0
x[377] 0
x[378] 1
x[379] 1
x[380] 0
x[381] 1
x[382] 0
x[383] 0
x[384] 1
x[385] 0
x[386] 0
x[387] 1
x[388] 1
x[389] 1
x[390] 0
x[391] 0
x[392] 0
x[393] 0
x[394] 1
x[395] 1
x[396] 0
x[397] 1
x[398] 1
x[399] 0
x[400] 1
x[401] 0
x[402] 1
x[403] 0
x[404] 1
x[405] 0
x[406] 1
x[407] 0
x[408] 1
x[409] 0
x[410] 1
x[411] 0
x[412] 1
x[413] 0
x[414] 1
x[415] 1
x[416] 0
x[417] 1
x[418] 1
x[419] 1
x[420] 0
x[421] 0
x[422] 0
x[423] 1
x[424] 1
x[425] 1
x[426] 1
x[427] 1
x[428] 0
x[429] 0
x[430] 1
x[431] 0
x[432] 1
x[433] 1
x[434] 1
x[435] 0
x[436] 1
x[437] 1
x[438] 1
x[439] 0
x[440] 1
x[441] 1
x[442] 0
x[443] 0
x[444] 1
x[445] 1
x[446] 1
x[447] 0
x[448] 0
x[449] 1
x[450] 0
x[451] 1
x[452] 0
x[453] 0
x[454] 0
x[455] 1
x[456] 1
x[457] 1
x[458] 0
x[459] 0
x[460] 0
x[461] 1
x[462] 1
x[463] 0
x[464] 1
x[465] 0
x[466] 1
x[467] 0
x[468] 0
x[469] 0
x[470] 1
x[471] 0
x[472] 1
x[473] 1
x[474] 0
x[475] 0
x[476] 0
x[477] 0
x[478] 0
x[479] 0
x[480] 1
x[481] 1
x[482] 0
x[483] 0
x[484] 1
x[485] 0
x[486] 1
x[487] 1
x[488] 0
x[489] 1
x[490] 0
x[491] 1
x[492] 0
x[493] 1
x[494] 0
x[495] 1
x[496] 1
x[497] 1
x[498] 0
x[499] 0
x[500] 1
x[501] 0
x[502] 0
x[503] 1
x[504] 1
x[505] 1
x[506] 0
x[507] 1
x[508] 1
x[509] 0
x[510] 0
x[511] 0
x[512] 0
x[513] 1
x[514] 1
x[515] 1
x[516] 1
x[517] 1
x[518] 0
x[519] 0
x[520] 0
x[521] 0
x[522] 1
x[523] 0
x[524] 0
x[525] 1
x[526] 1
x[527] 1
x[528] 1
x[529] 0
x[530] 0
x[531] 1
x[532] 0
x[533] 1
x[534] 0
x[535] 0
x[536] 1
x[537] 1
x[538] 0
x[539] 0
x[540] 1
x[541] 1
x[542] 0
x[543] 0
x[544] 1
x[545] 1
x[546] 0
x[547] 0
x[548] 0
x[549] 1
x[550] 1
x[551] 0
x[552] 1
x[553] 0
x[554] 1
x[555] 1
x[556] 0
x[557] 0
x[558] 0
x[559] 1
x[560] 1
x[561] 0
x[562] 1
x[563] 0
x[564] 0
x[565] 0
x[566] 0
x[567] 1
x[568] 0
x[569] 0
x[570] 0
x[571] 0
x[572] 0
x[573] 1
x[574] 0
x[575] 1
x[576] 0
x[577] 0
x[578] 0
x[579] 0
x[580] 0
x[581] 1
x[582] 1
x[583] 1
x[584] 0
x[585] 0
x[586] 0
x[587] 0
x[588] 1
x[589] 1
x[590] 0
x[591] 1
x[592] 0
x[593] 1
x[594] 0
x[595] 1
x[596] 1
x[597] 0
x[598] 0
x[599] 1
x[600] 1
x[601] 1
x[602] 1
x[603] 0
x[604] 1
x[605] 1
x[606] 1
x[607] 1
x[608] 0
x[609] 1
x[610] 1
x[611] 1
x[612] 1
x[613] 0
x[614] 0
x[615] 1
x[616] 0
x[617] 1
x[618] 1
x[619] 1
x[620] 0
x[621] 0
x[622] 1
x[623] 0
x[624] 0
x[625] 1
x[626] 1
x[627] 0
x[628] 1
x[629] 1
x[630] 0
x[631] 0
x[632] 1
x[633] 1
x[634] 0
x[635] 1
x[636] 1
x[637] 1
x[638] 0
x[639] 1
x[640] 0
x[641] 0
x[642] 1
x[643] 1
x[644] 1
x[645] 1
x[646] 1
x[647] 1
x[648] 1
x[649] 1
x[650] 1
x[651] 0
x[652] 1
x[653] 1
x[654] 0
x[655] 0
x[656] 0
x[657] 1
x[658] 1
x[659] 1
x[660] 0
x[661] 1
x[662] 0
x[663] 0
x[664] 0
x[665] 0
x[666] 0
x[667] 0
x[668] 1
x[669] 0
x[670] 1
x[671] 0
x[672] 0
x[673] 0
x[674] 0
x[675] 1
x[676] 0
x[677] 1
x[678] 0
x[679] 0
x[680] 1
x[681] 1
x[682] 1
x[683] 0
x[684] 0
x[685] 0
x[686] 0
x[687] 1
x[688] 1
x[689] 0
x[690] 0
x[691] 0
x[692] 0
x[693] 0
x[694] 1
x[695] 1
x[696] 0
x[697] 0
x[698] 1
x[699] 0
x[700] 0
x[701] 0
x[702] 1
x[703] 1
x[704] 0
x[705] 1
x[706] 1
x[707] 0
x[708] 0
x[709] 1
x[710] 1
x[711] 1
x[712] 1
x[713] 0
x[714] 1
x[715] 1
x[716] 1
x[717] 1
x[718] 1
x[719] 1
x[720] 0
x[721] 1
x[722] 0
x[723] 1
x[724] 0
x[725] 0
x[726] 0
x[727] 1
x[728] 1
x[729] 1
x[730] 0
x[731] 0
x[732] 0
x[733] 1
x[734] 1
x[735] 1
x[736] 0
x[737] 0
x[738] 1
x[739] 0
x[740] 1
x[741] 0
x[742] 0
x[743] 0
x[744] 1
x[745] 0
x[746] 0
x[747] 0
x[748] 1
x[749] 1
x[750] 0
x[751] 1
x[752] 1
x[753] 0
x[754] 1
x[755] 1
x[756] 0
x[757] 1
x[758] 0
x[759] 1
x[760] 0
x[761] 0
x[762] 0
x[763] 0
x[764] 0
x[765] 1
x[766] 1
x[767] 1
x[768] 0
x[769] 0
x[770] 0
x[771] 1
x[772] 0
x[773] 1
x[774] 0
x[775] 1
x[776] 1
x[777] 0
x[778] 0
x[779] 0
x[780] 1
x[781] 1
x[782] 1
x[783] 1
x[784] 1
x[785] 0
x[786] 1
x[787] 1
x[788] 0
x[789] 0
x[790] 0
x[791] 0
x[792] 1
x[793] 1
x[794] 1
x[795] 0
x[796] 0
x[797] 1
x[798] 0
x[799] 1
x[800] 0
x[801] 1
x[802] 1
x[803] 0
x[804] 0
x[805] 1
x[806] 1
x[807] 1
x[808] 0
x[809] 0
x[810] 1
x[811] 1
x[812] 1
x[813] 0
x[814] 1
x[815] 0
x[816] 0
x[817] 1
x[818] 0
x[819] 1
x[820] 0
x[821] 1
x[822] 0
x[823] 0
x[824] 1
x[825] 1
x[826] 0
x[827] 0
x[828] 0
x[829] 1
x[830] 0
x[831] 0
x[832] 0
x[833] 0
x[834] 0
x[835] 0
x[836] 0
x[837] 0
x[838] 0
x[839] 1
x[840] 1
x[841] 0
x[842] 1
x[843] 0
x[844] 1
x[845] 0
x[846] 1
x[847] 1
x[848] 0
x[849] 1
x[850] 0
x[851] 0
x[852] 1
x[853] 1
x[854] 0
x[855] 0
x[856] 1
x[857] 0
x[858] 0
x[859] 1
x[860] 1
x[861] 0
x[862] 1
x[863] 1
x[864] 0
x[865] 0
x[866] 0
x[867] 0
x[868] 1
x[869] 0
x[870] 1
x[871] 1
x[872] 1
x[873] 1
x[874] 1
x[875] 0
x[876] 1
x[877] 1
x[878] 1
x[879] 1
x[880] 1
x[881] 0
x[882] 0
x[883] 0
x[884] 0
x[885] 1
x[886] 0
x[887] 1
x[888] 1
x[889] 0
x[890] 0
x[891] 0
x[892] 0
x[893] 0
x[894] 0
x[895] 1
x[896] 0
x[897] 0
x[898] 0
x[899] 0
x[900] 0
x[901] 0
x[902] 0
x[903] 0
x[904] 0
x[905] 1
x[906] 0
x[907] 0
x[908] 0
x[909] 1
x[910] 0
x[911] 1
x[912] 1
x[913] 1
x[914] 1
x[915] 1
x[916] 1
x[917] 1
x[918] 1
x[919] 0
x[920] 1
x[921] 0
x[922] 0
x[923] 0
x[924] 0
x[925] 1
x[926] 0
x[927] 0
x[928] 0
x[929] 0
x[930] 1
x[931] 1
x[932] 0
x[933] 0
x[934] 0
x[935] 1
x[936] 0
x[937] 0
x[938] 1
x[939] 0
x[940] 1
x[941] 0
x[942] 0
x[943] 0
x[944] 1
x[945] 0
x[946] 0
x[947] 0
x[948] 0
x[949] 0
x[950] 0
x[951] 1
x[952] 0
x[953] 0
x[954] 1
x[955] 0
x[956] 1
x[957] 1
x[958] 1
x[959] 0
x[960] 1
x[961] 0
x[962] 0
x[963] 1
x[964] 1
x[965] 0
x[966] 1
x[967] 1
x[968] 0
x[969] 0
x[970] 1
x[971] 0
x[972] 0
x[973] 1
x[974] 0
x[975] 1
x[976] 1
x[977] 1
x[978] 0
x[979] 1
x[980] 0
x[981] 1
x[982] 0
x[983] 0
x[984] 0
x[985] 1
x[986] 1
x[987] 0
x[988] 1
x[989] 1
x[990] 1
x[991] 0
x[992] 0
x[993] 0
x[994] 1
x[995] 1
x[996] 0
x[997] 0
x[998] 1
x[999] 1
